Clp0006I 0  Obj 0 Primal inf 399.99996 (400) Dual inf 1100977 (40000)
Clp0006I 200  Obj -24378 Primal inf 3294 (377)
Clp0006I 311  Obj -9997 Primal inf 1774 (354)
Clp0006I 371  Obj -9997 Primal inf 1742 (339)
Clp0006I 450  Obj -9997 Primal inf 1307 (332)
Clp0006I 545  Obj -9997 Primal inf 821.99997 (308)
Clp0006I 664  Obj -9997 Primal inf 704.99997 (302)
Clp0006I 772  Obj -9997 Primal inf 345.99998 (238)
Clp0006I 848  Obj -9997 Primal inf 336.99998 (185)
Clp0006I 945  Obj -9995 Primal inf 267.99999 (123)
Clp0006I 1021  Obj -9995 Primal inf 424.99999 (112)
Clp0006I 1087  Obj -9993 Primal inf 116.99999 (71)
Clp0006I 1144  Obj -9993 Primal inf 20.999998 (21)
Clp0006I 1165  Obj -9993
Clp0000I Optimal - objective value -9993
Clp0000I Optimal - objective value -9993
Node 0 depth 0 unsatisfied 0 sum 0 obj -9993 guess -9993 branching on -1
Clp0000I Optimal - objective value -9993
Cbc0004I Integer solution of -9993 found after 0 iterations and 0 nodes (0.20 seconds)
Cbc0001I Search completed - best objective -9993, took 0 iterations and 0 nodes (0.21 seconds)
Cbc0035I Maximum depth 0, 0 variables fixed on reduced cost
Clp0000I Optimal - objective value -9993
Clp0000I Optimal - objective value -9993
x_84 = 1
x_295 = 1
x_571 = 1
x_775 = 1
x_817 = 1
x_1091 = 1
x_1352 = 1
x_1442 = 1
x_1761 = 1
x_1853 = 1
x_2103 = 1
x_2208 = 1
x_2566 = 1
x_2785 = 1
x_2898 = 1
x_3070 = 1
x_3275 = 1
x_3487 = 1
x_3606 = 1
x_3915 = 1
x_4122 = 1
x_4234 = 1
x_4533 = 1
x_4783 = 1
x_4959 = 1
x_5199 = 1
x_5332 = 1
x_5588 = 1
x_5696 = 1
x_5852 = 1
x_6190 = 1
x_6294 = 1
x_6467 = 1
x_6682 = 1
x_6847 = 1
x_7179 = 1
x_7381 = 1
x_7509 = 1
x_7657 = 1
x_7913 = 1
x_8027 = 1
x_8363 = 1
x_8469 = 1
x_8797 = 1
x_8949 = 1
x_9038 = 1
x_9230 = 1
x_9418 = 1
x_9736 = 1
x_9860 = 1
x_10023 = 1
x_10378 = 1
x_10591 = 1
x_10792 = 1
x_10927 = 1
x_11160 = 1
x_11245 = 1
x_11440 = 1
x_11789 = 1
x_11816 = 1
x_12106 = 1
x_12274 = 1
x_12501 = 1
x_12619 = 1
x_12809 = 1
x_13036 = 1
x_13387 = 1
x_13500 = 1
x_13714 = 1
x_13939 = 1
x_14107 = 1
x_14202 = 1
x_14502 = 1
x_14757 = 1
x_14982 = 1
x_15158 = 1
x_15239 = 1
x_15517 = 1
x_15745 = 1
x_15835 = 1
x_16041 = 1
x_16279 = 1
x_16542 = 1
x_16612 = 1
x_16811 = 1
x_17048 = 1
x_17384 = 1
x_17543 = 1
x_17738 = 1
x_17921 = 1
x_18093 = 1
x_18373 = 1
x_18462 = 1
x_18746 = 1
x_18892 = 1
x_19055 = 1
x_19237 = 1
x_19485 = 1
x_19768 = 1
x_19805 = 1
x_20049 = 1
x_20256 = 1
x_20510 = 1
x_20633 = 1
x_20877 = 1
x_21021 = 1
x_21261 = 1
x_21556 = 1
x_21689 = 1
x_21826 = 1
x_22028 = 1
x_22278 = 1
x_22537 = 1
x_22776 = 1
x_22995 = 1
x_23180 = 1
x_23396 = 1
x_23465 = 1
x_23729 = 1
x_23967 = 1
x_24064 = 1
x_24204 = 1
x_24400 = 1
x_24748 = 1
x_24846 = 1
x_25022 = 1
x_25258 = 1
x_25466 = 1
x_25672 = 1
x_25918 = 1
x_26165 = 1
x_26244 = 1
x_26424 = 1
x_26659 = 1
x_26950 = 1
x_27029 = 1
x_27351 = 1
x_27526 = 1
x_27607 = 1
x_27832 = 1
x_28097 = 1
x_28340 = 1
x_28401 = 1
x_28777 = 1
x_28994 = 1
x_29125 = 1
x_29372 = 1
x_29520 = 1
x_29631 = 1
x_29881 = 1
x_30130 = 1
x_30393 = 1
x_30483 = 1
x_30686 = 1
x_30944 = 1
x_31071 = 1
x_31290 = 1
x_31523 = 1
x_31650 = 1
x_31810 = 1
x_32108 = 1
x_32328 = 1
x_32476 = 1
x_32643 = 1
x_32820 = 1
x_33141 = 1
x_33280 = 1
x_33454 = 1
x_33774 = 1
x_33924 = 1
x_34013 = 1
x_34268 = 1
x_34570 = 1
x_34615 = 1
x_34954 = 1
x_35014 = 1
x_35386 = 1
x_35504 = 1
x_35755 = 1
x_35953 = 1
x_36051 = 1
x_36311 = 1
x_36569 = 1
x_36663 = 1
x_36803 = 1
x_37198 = 1
x_37364 = 1
x_37488 = 1
x_37747 = 1
x_37873 = 1
x_38025 = 1
x_38319 = 1
x_38516 = 1
x_38762 = 1
x_38935 = 1
x_39099 = 1
x_39312 = 1
x_39534 = 1
x_39731 = 1
x_39905 = 1
real 0m0,390s user 0m0,353s sys 0m0,037s
